data/solutions/recovery/degenerate/moderate/flexible/degenerate_moderate_instance6/37.sol
Elapsed time: 0.07
Upper bound: 10517273.0
Planning weighted value: 64175259.0
C[0]=10517273.0
C[1]=10501065.0
C[2]=10500517.0
y[0]=2
y[1]=2
y[2]=2
y[3]=1
y[4]=0
y[5]=1
y[6]=1
y[7]=2
y[8]=1
y[9]=0
y[10]=0
y[11]=1
y[12]=0
y[13]=1
y[14]=2
y[15]=2
y[16]=2
y[17]=1
y[18]=2
y[19]=0
y[20]=0
y[21]=1
y[22]=0
y[23]=1
y[24]=0
y[25]=1
