data/solutions/recovery/degenerate/moderate/flexible/degenerate_moderate_instance6/37.log

Log started (V12.6.3.0) Sat Apr 21 11:06:24 2018

New value for default parallel thread count: 1

Problem '/tmp/tmp6CQGJk.pyomo.lp' read.
Read time = 0.00 sec. (0.02 ticks)

Problem name         : /tmp/tmp6CQGJk.pyomo.lp
Objective sense      : Minimize
Variables            :      83  [Nneg: 1,  Binary: 78,  General Integer: 4]
Objective nonzeros   :       1
Linear constraints   :      59  [Less: 29,  Equal: 30]
  Nonzeros           :    1466
  RHS nonzeros       :      53

Variables            : Min LB: 0.000000         Max UB: 1.000000       
Objective nonzeros   : Min   : 1.000000         Max   : 1.000000       
Linear constraints   :
  Nonzeros           : Min   : 1.000000         Max   : 2096995.       
  RHS nonzeros       : Min   : 1.000000         Max   : 3.000000       
Tried aggregator 2 times.
MIP Presolve eliminated 26 rows and 1 columns.
Aggregator did 3 substitutions.
Reduced MIP has 30 rows, 79 columns, and 209 nonzeros.
Reduced MIP has 78 binaries, 1 generals, 0 SOSs, and 0 indicators.
Presolve time = 0.00 sec. (0.56 ticks)
Found incumbent of value 1.3423876e+07 after 0.00 sec. (0.71 ticks)
Probing time = 0.00 sec. (0.04 ticks)
Cover probing fixed 0 vars, tightened 4 bounds.
Tried aggregator 1 time.
Reduced MIP has 30 rows, 79 columns, and 209 nonzeros.
Reduced MIP has 78 binaries, 1 generals, 0 SOSs, and 0 indicators.
Presolve time = 0.00 sec. (0.13 ticks)
Probing time = 0.00 sec. (0.03 ticks)
Clique table members: 26.
MIP emphasis: balance optimality and feasibility.
MIP search method: dynamic search.
Parallel mode: none, using 1 thread.
Root relaxation solution time = 0.00 sec. (0.06 ticks)

        Nodes                                         Cuts/
   Node  Left     Objective  IInf  Best Integer    Best Bound    ItCnt     Gap

*     0+    0                       1.34239e+07  2096995.0000            84.38%
      0     0   1.05063e+07     4   1.34239e+07   1.05063e+07        3   21.73%
*     0+    0                       1.13918e+07   1.05063e+07             7.77%
      0     0   1.05063e+07     8   1.13918e+07      Fract: 2        8    7.77%
*     0+    0                       1.11715e+07   1.05063e+07             5.95%
*     0+    0                       1.11465e+07   1.05063e+07             5.74%
*     0+    0                       1.11440e+07   1.05063e+07             5.72%
      0     2   1.05063e+07     8   1.11440e+07   1.05063e+07        8    5.72%
Elapsed time = 0.01 sec. (2.67 ticks, tree = 0.01 MB, solutions = 4)
*    14    14      integral     0   1.09124e+07   1.05063e+07       67    3.72%
*    16    14      integral     0   1.09044e+07   1.05063e+07       74    3.65%
*    26    15      integral     0   1.08653e+07   1.05063e+07       92    3.30%
*    90+   38                       1.07618e+07   1.05063e+07             2.37%
*    90+   37                       1.07561e+07   1.05063e+07             2.32%
*   101    35      integral     0   1.06728e+07   1.05063e+07      341    1.56%
*   150+   28                       1.05612e+07   1.05063e+07             0.52%
*   160    30      integral     0   1.05461e+07   1.05063e+07      543    0.38%
*   200+   25                       1.05415e+07   1.05063e+07             0.33%
*   310    61      integral     0   1.05343e+07   1.05063e+07     1079    0.27%
*   485    40      integral     0   1.05286e+07   1.05063e+07     1648    0.21%
*   490+   39                       1.05173e+07   1.05063e+07             0.10%

Cover cuts applied:  25
Gomory fractional cuts applied:  2

Root node processing (before b&c):
  Real time             =    0.01 sec. (2.68 ticks)
Sequential b&c:
  Real time             =    0.03 sec. (24.11 ticks)
                          ------------
Total (root+branch&cut) =    0.04 sec. (26.79 ticks)

Solution pool: 16 solutions saved.

MIP - Integer optimal, tolerance (0.0001/1e-06):  Objective =  1.0517273000e+07
Current MIP best bound =  1.0516453000e+07 (gap = 820, 0.01%)
Solution time =    0.04 sec.  Iterations = 1765  Nodes = 535 (2)
Deterministic time = 26.79 ticks  (721.35 ticks/sec)


Incumbent solution written to file '/tmp/tmp9GycUD.cplex.sol'.
